unsat
(:binary-propagations  20
 :conflicts            1
 :final-checks         1
 :max-generation       1
 :max-memory           23.56
 :memory               20.95
 :mk-bool-var          762
 :mk-clause            273
 :mk-clause-binary     546
 :num-allocs           10703370
 :num-checks           1
 :propagations         20
 :quant-instantiations 173
 :restarts             1
 :rlimit-count         87816
 :time                 0.04)
